50
1 0 2
2 0 8
2 1 5
3 0 5
3 1 10
3 2 4
4 0 5
4 1 10
4 2 8
4 3 9
5 0 8
5 1 1
5 2 6
5 3 4
5 4 8
6 0 9
6 1 9
6 2 9
6 3 7
6 4 3
6 5 8
7 0 7
7 1 5
7 2 2
7 3 9
7 4 6
7 5 2
7 6 3
8 0 7
8 1 8
8 2 3
8 3 9
8 4 2
8 5 10
8 6 5
8 7 1
9 0 1
9 1 4
9 2 1
9 3 2
9 4 6
9 5 3
9 6 8
9 7 10
9 8 5
10 0 8
10 1 6
10 2 3
10 3 9
10 4 10
10 5 9
10 6 3
10 7 8
10 8 10
10 9 6
11 0 3
11 1 10
11 2 10
11 3 8
11 4 4
11 5 4
11 6 6
11 7 5
11 8 6
11 9 10
11 10 4
12 0 5
12 1 6
12 2 10
12 3 1
12 4 4
12 5 5
12 6 7
12 7 7
12 8 10
12 9 4
12 10 5
12 11 10
13 0 6
13 1 10
13 2 5
13 3 9
13 4 8
13 5 3
13 6 3
13 7 8
13 8 10
13 9 10
13 10 4
13 11 8
13 12 4
14 0 5
14 1 9
14 2 3
14 3 2
14 4 10
14 5 1
14 6 2
14 7 5
14 8 3
14 9 9
14 10 3
14 11 8
14 12 6
14 13 9
15 0 6
15 1 10
15 2 10
15 3 6
15 4 4
15 5 7
15 6 5
15 7 6
15 8 3
15 9 2
15 10 8
15 11 2
15 12 1
15 13 2
15 14 3
16 0 10
16 1 5
16 2 8
16 3 5
16 4 7
16 5 1
16 6 3
16 7 5
16 8 1
16 9 5
16 10 5
16 11 1
16 12 3
16 13 4
16 14 10
16 15 1
17 0 2
17 1 5
17 2 7
17 3 10
17 4 10
17 5 8
17 6 10
17 7 1
17 8 1
17 9 7
17 10 6
17 11 9
17 12 4
17 13 1
17 14 2
17 15 8
17 16 2
18 0 1
18 1 2
18 2 4
18 3 2
18 4 1
18 5 10
18 6 8
18 7 10
18 8 4
18 9 7
18 10 7
18 11 7
18 12 3
18 13 6
18 14 6
18 15 7
18 16 9
18 17 2
19 0 9
19 1 9
19 2 10
19 3 10
19 4 10
19 5 4
19 6 1
19 7 7
19 8 6
19 9 10
19 10 2
19 11 5
19 12 5
19 13 5
19 14 6
19 15 8
19 16 8
19 17 10
19 18 5
20 0 5
20 1 3
20 2 8
20 3 7
20 4 7
20 5 1
20 6 6
20 7 7
20 8 2
20 9 8
20 10 5
20 11 4
20 12 6
20 13 9
20 14 8
20 15 4
20 16 10
20 17 8
20 18 8
20 19 1
21 0 9
21 1 8
21 2 9
21 3 5
21 4 7
21 5 5
21 6 3
21 7 4
21 8 1
21 9 6
21 10 4
21 11 10
21 12 2
21 13 8
21 14 5
21 15 3
21 16 5
21 17 8
21 18 3
21 19 3
21 20 9
22 0 5
22 1 1
22 2 2
22 3 4
22 4 1
22 5 3
22 6 8
22 7 7
22 8 8
22 9 5
22 10 8
22 11 4
22 12 7
22 13 9
22 14 7
22 15 9
22 16 7
22 17 2
22 18 6
22 19 3
22 20 5
22 21 8
23 0 6
23 1 5
23 2 2
23 3 2
23 4 3
23 5 2
23 6 8
23 7 10
23 8 5
23 9 7
23 10 7
23 11 5
23 12 7
23 13 4
23 14 2
23 15 7
23 16 4
23 17 3
23 18 7
23 19 8
23 20 7
23 21 9
23 22 4
24 0 5
24 1 9
24 2 3
24 3 8
24 4 3
24 5 7
24 6 6
24 7 4
24 8 9
24 9 2
24 10 5
24 11 8
24 12 7
24 13 8
24 14 1
24 15 10
24 16 5
24 17 8
24 18 1
24 19 6
24 20 6
24 21 4
24 22 8
24 23 5
25 0 2
25 1 9
25 2 1
25 3 10
25 4 5
25 5 3
25 6 10
25 7 2
25 8 8
25 9 8
25 10 10
25 11 3
25 12 8
25 13 5
25 14 10
25 15 6
25 16 4
25 17 8
25 18 2
25 19 8
25 20 5
25 21 9
25 22 5
25 23 8
25 24 3
26 0 7
26 1 3
26 2 2
26 3 1
26 4 7
26 5 2
26 6 7
26 7 10
26 8 1
26 9 10
26 10 8
26 11 2
26 12 6
26 13 5
26 14 7
26 15 6
26 16 3
26 17 2
26 18 4
26 19 4
26 20 2
26 21 3
26 22 5
26 23 3
26 24 6
26 25 2
27 0 4
27 1 7
27 2 5
27 3 5
27 4 4
27 5 4
27 6 10
27 7 7
27 8 3
27 9 3
27 10 4
27 11 2
27 12 1
27 13 6
27 14 10
27 15 7
27 16 1
27 17 3
27 18 4
27 19 5
27 20 10
27 21 10
27 22 6
27 23 8
27 24 7
27 25 4
27 26 1
28 0 6
28 1 7
28 2 3
28 3 2
28 4 8
28 5 9
28 6 3
28 7 3
28 8 1
28 9 10
28 10 1
28 11 2
28 12 10
28 13 6
28 14 9
28 15 7
28 16 5
28 17 2
28 18 2
28 19 6
28 20 1
28 21 4
28 22 4
28 23 6
28 24 7
28 25 1
28 26 5
28 27 1
29 0 7
29 1 5
29 2 6
29 3 6
29 4 8
29 5 7
29 6 10
29 7 3
29 8 7
29 9 2
29 10 2
29 11 8
29 12 2
29 13 7
29 14 10
29 15 9
29 16 3
29 17 3
29 18 4
29 19 10
29 20 6
29 21 8
29 22 7
29 23 10
29 24 10
29 25 8
29 26 7
29 27 1
29 28 8
30 0 3
30 1 1
30 2 3
30 3 3
30 4 2
30 5 2
30 6 10
30 7 2
30 8 1
30 9 8
30 10 2
30 11 1
30 12 2
30 13 2
30 14 10
30 15 10
30 16 5
30 17 2
30 18 2
30 19 6
30 20 4
30 21 1
30 22 10
30 23 10
30 24 5
30 25 8
30 26 9
30 27 10
30 28 7
30 29 7
31 0 3
31 1 4
31 2 7
31 3 6
31 4 5
31 5 5
31 6 6
31 7 5
31 8 6
31 9 1
31 10 1
31 11 7
31 12 7
31 13 3
31 14 9
31 15 1
31 16 2
31 17 6
31 18 7
31 19 7
31 20 10
31 21 2
31 22 1
31 23 9
31 24 2
31 25 2
31 26 5
31 27 9
31 28 1
31 29 7
31 30 9
32 0 10
32 1 5
32 2 5
32 3 3
32 4 2
32 5 10
32 6 10
32 7 8
32 8 4
32 9 5
32 10 3
32 11 7
32 12 3
32 13 9
32 14 10
32 15 5
32 16 7
32 17 5
32 18 2
32 19 7
32 20 5
32 21 9
32 22 1
32 23 1
32 24 8
32 25 7
32 26 9
32 27 3
32 28 8
32 29 8
32 30 1
32 31 5
33 0 4
33 1 6
33 2 6
33 3 9
33 4 9
33 5 8
33 6 6
33 7 7
33 8 4
33 9 4
33 10 8
33 11 7
33 12 7
33 13 8
33 14 10
33 15 1
33 16 4
33 17 9
33 18 6
33 19 8
33 20 7
33 21 8
33 22 2
33 23 5
33 24 9
33 25 9
33 26 7
33 27 6
33 28 7
33 29 10
33 30 9
33 31 6
33 32 9
34 0 9
34 1 4
34 2 1
34 3 7
34 4 6
34 5 5
34 6 5
34 7 5
34 8 6
34 9 4
34 10 2
34 11 2
34 12 1
34 13 1
34 14 4
34 15 10
34 16 9
34 17 9
34 18 3
34 19 1
34 20 9
34 21 2
34 22 5
34 23 10
34 24 3
34 25 6
34 26 9
34 27 3
34 28 9
34 29 1
34 30 4
34 31 1
34 32 3
34 33 9
35 0 8
35 1 4
35 2 8
35 3 1
35 4 9
35 5 3
35 6 1
35 7 9
35 8 8
35 9 6
35 10 1
35 11 10
35 12 3
35 13 7
35 14 10
35 15 1
35 16 3
35 17 5
35 18 1
35 19 5
35 20 3
35 21 2
35 22 10
35 23 10
35 24 2
35 25 3
35 26 4
35 27 4
35 28 1
35 29 7
35 30 8
35 31 2
35 32 9
35 33 4
35 34 2
36 0 9
36 1 9
36 2 3
36 3 3
36 4 2
36 5 7
36 6 8
36 7 9
36 8 2
36 9 8
36 10 1
36 11 8
36 12 6
36 13 5
36 14 10
36 15 9
36 16 9
36 17 2
36 18 10
36 19 10
36 20 7
36 21 9
36 22 6
36 23 5
36 24 5
36 25 8
36 26 1
36 27 7
36 28 4
36 29 1
36 30 9
36 31 9
36 32 5
36 33 8
36 34 8
36 35 5
37 0 5
37 1 10
37 2 8
37 3 9
37 4 10
37 5 10
37 6 7
37 7 6
37 8 5
37 9 2
37 10 6
37 11 6
37 12 10
37 13 6
37 14 8
37 15 4
37 16 6
37 17 4
37 18 4
37 19 6
37 20 5
37 21 1
37 22 3
37 23 5
37 24 5
37 25 10
37 26 4
37 27 6
37 28 3
37 29 9
37 30 6
37 31 9
37 32 1
37 33 2
37 34 5
37 35 2
37 36 4
38 0 1
38 1 6
38 2 9
38 3 9
38 4 4
38 5 6
38 6 9
38 7 3
38 8 2
38 9 5
38 10 1
38 11 7
38 12 8
38 13 5
38 14 10
38 15 4
38 16 7
38 17 10
38 18 8
38 19 6
38 20 9
38 21 10
38 22 9
38 23 5
38 24 4
38 25 2
38 26 4
38 27 7
38 28 8
38 29 8
38 30 8
38 31 10
38 32 8
38 33 5
38 34 6
38 35 8
38 36 3
38 37 8
39 0 8
39 1 10
39 2 1
39 3 4
39 4 1
39 5 10
39 6 9
39 7 8
39 8 1
39 9 5
39 10 3
39 11 2
39 12 8
39 13 10
39 14 7
39 15 2
39 16 7
39 17 3
39 18 7
39 19 5
39 20 10
39 21 3
39 22 3
39 23 5
39 24 3
39 25 6
39 26 10
39 27 4
39 28 5
39 29 8
39 30 6
39 31 1
39 32 10
39 33 3
39 34 5
39 35 4
39 36 8
39 37 6
39 38 6
40 0 8
40 1 2
40 2 7
40 3 8
40 4 4
40 5 1
40 6 3
40 7 9
40 8 4
40 9 8
40 10 3
40 11 9
40 12 6
40 13 7
40 14 5
40 15 1
40 16 10
40 17 2
40 18 6
40 19 10
40 20 6
40 21 7
40 22 10
40 23 2
40 24 8
40 25 8
40 26 5
40 27 3
40 28 7
40 29 8
40 30 3
40 31 9
40 32 7
40 33 7
40 34 8
40 35 8
40 36 3
40 37 5
40 38 2
40 39 2
41 0 6
41 1 2
41 2 6
41 3 8
41 4 1
41 5 5
41 6 2
41 7 3
41 8 3
41 9 2
41 10 6
41 11 10
41 12 7
41 13 2
41 14 3
41 15 10
41 16 2
41 17 3
41 18 8
41 19 10
41 20 5
41 21 6
41 22 6
41 23 7
41 24 5
41 25 2
41 26 6
41 27 6
41 28 9
41 29 9
41 30 1
41 31 2
41 32 5
41 33 4
41 34 9
41 35 9
41 36 6
41 37 9
41 38 4
41 39 7
41 40 9
42 0 7
42 1 5
42 2 3
42 3 5
42 4 7
42 5 7
42 6 2
42 7 6
42 8 3
42 9 7
42 10 2
42 11 3
42 12 8
42 13 7
42 14 9
42 15 3
42 16 6
42 17 1
42 18 6
42 19 2
42 20 4
42 21 6
42 22 1
42 23 9
42 24 9
42 25 4
42 26 2
42 27 9
42 28 3
42 29 1
42 30 9
42 31 10
42 32 3
42 33 10
42 34 9
42 35 8
42 36 8
42 37 7
42 38 7
42 39 2
42 40 6
42 41 10
43 0 9
43 1 7
43 2 7
43 3 5
43 4 10
43 5 10
43 6 6
43 7 3
43 8 4
43 9 2
43 10 10
43 11 8
43 12 7
43 13 4
43 14 7
43 15 1
43 16 4
43 17 7
43 18 5
43 19 6
43 20 8
43 21 8
43 22 1
43 23 1
43 24 9
43 25 3
43 26 10
43 27 10
43 28 5
43 29 1
43 30 7
43 31 6
43 32 3
43 33 9
43 34 6
43 35 10
43 36 7
43 37 4
43 38 2
43 39 2
43 40 4
43 41 10
43 42 7
44 0 7
44 1 5
44 2 6
44 3 5
44 4 7
44 5 1
44 6 5
44 7 1
44 8 8
44 9 8
44 10 10
44 11 8
44 12 5
44 13 9
44 14 6
44 15 9
44 16 5
44 17 2
44 18 1
44 19 3
44 20 8
44 21 6
44 22 3
44 23 5
44 24 9
44 25 8
44 26 8
44 27 9
44 28 4
44 29 1
44 30 1
44 31 10
44 32 8
44 33 5
44 34 5
44 35 2
44 36 7
44 37 7
44 38 7
44 39 5
44 40 5
44 41 6
44 42 4
44 43 9
45 0 8
45 1 4
45 2 2
45 3 10
45 4 10
45 5 2
45 6 6
45 7 3
45 8 6
45 9 9
45 10 8
45 11 6
45 12 10
45 13 8
45 14 5
45 15 3
45 16 9
45 17 8
45 18 2
45 19 4
45 20 10
45 21 1
45 22 7
45 23 5
45 24 5
45 25 3
45 26 5
45 27 1
45 28 4
45 29 3
45 30 7
45 31 3
45 32 4
45 33 9
45 34 1
45 35 10
45 36 4
45 37 2
45 38 5
45 39 5
45 40 3
45 41 3
45 42 2
45 43 2
45 44 3
46 0 7
46 1 8
46 2 4
46 3 4
46 4 4
46 5 4
46 6 8
46 7 8
46 8 7
46 9 6
46 10 9
46 11 6
46 12 4
46 13 5
46 14 9
46 15 7
46 16 7
46 17 7
46 18 2
46 19 1
46 20 9
46 21 9
46 22 1
46 23 4
46 24 9
46 25 3
46 26 8
46 27 6
46 28 7
46 29 6
46 30 4
46 31 1
46 32 9
46 33 10
46 34 10
46 35 2
46 36 5
46 37 2
46 38 8
46 39 8
46 40 2
46 41 6
46 42 5
46 43 3
46 44 4
46 45 10
47 0 4
47 1 1
47 2 1
47 3 2
47 4 1
47 5 3
47 6 10
47 7 7
47 8 5
47 9 4
47 10 7
47 11 6
47 12 1
47 13 5
47 14 5
47 15 6
47 16 1
47 17 3
47 18 8
47 19 1
47 20 2
47 21 3
47 22 6
47 23 8
47 24 3
47 25 10
47 26 4
47 27 6
47 28 2
47 29 4
47 30 7
47 31 5
47 32 10
47 33 8
47 34 5
47 35 5
47 36 6
47 37 9
47 38 10
47 39 2
47 40 5
47 41 5
47 42 1
47 43 4
47 44 9
47 45 2
47 46 1
48 0 5
48 1 2
48 2 9
48 3 2
48 4 9
48 5 7
48 6 5
48 7 9
48 8 6
48 9 5
48 10 5
48 11 3
48 12 8
48 13 10
48 14 4
48 15 1
48 16 10
48 17 10
48 18 4
48 19 9
48 20 8
48 21 7
48 22 1
48 23 10
48 24 10
48 25 6
48 26 5
48 27 10
48 28 1
48 29 5
48 30 7
48 31 8
48 32 3
48 33 7
48 34 8
48 35 7
48 36 9
48 37 3
48 38 5
48 39 8
48 40 3
48 41 8
48 42 3
48 43 6
48 44 4
48 45 8
48 46 5
48 47 8
49 0 6
49 1 5
49 2 5
49 3 8
49 4 8
49 5 2
49 6 5
49 7 10
49 8 3
49 9 2
49 10 5
49 11 2
49 12 7
49 13 7
49 14 2
49 15 10
49 16 7
49 17 7
49 18 5
49 19 2
49 20 10
49 21 2
49 22 9
49 23 2
49 24 8
49 25 9
49 26 4
49 27 1
49 28 5
49 29 5
49 30 2
49 31 8
49 32 7
49 33 4
49 34 2
49 35 8
49 36 8
49 37 8
49 38 4
49 39 10
49 40 1
49 41 3
49 42 1
49 43 7
49 44 5
49 45 10
49 46 8
49 47 9
49 48 3
